
Gurobi 9.0.3 (win64, Java) logging started Wed Nov 11 15:53:34 2020

Academic license - for non-commercial use only
Gurobi Optimizer version 9.0.3 build v9.0.3rc0 (win64)
Optimize a model with 50 rows, 13 columns and 50 nonzeros
Model fingerprint: 0x1a98d444
Coefficient statistics:
  Matrix range     [1e+00, 1e+00]
  Objective range  [4e+02, 9e+02]
  Bounds range     [1e+00, 1e+00]
  RHS range        [1e+00, 1e+00]
Presolve removed 50 rows and 13 columns
Presolve time: 0.00s
Presolve: All rows and columns removed
Iteration    Objective       Primal Inf.    Dual Inf.      Time
       0    8.4564000e+03   0.000000e+00   0.000000e+00      0s

Solved in 0 iterations and 0.00 seconds
Optimal objective  8.456400000e+03
Gurobi Optimizer version 9.0.3 build v9.0.3rc0 (win64)
Optimize a model with 50 rows, 177 columns and 488 nonzeros
Coefficient statistics:
  Matrix range     [1e+00, 1e+00]
  Objective range  [1e+01, 9e+02]
  Bounds range     [1e+00, 1e+00]
  RHS range        [1e+00, 1e+00]
Iteration    Objective       Primal Inf.    Dual Inf.      Time
       0   -2.2185540e+05   1.575000e+03   0.000000e+00      0s
      20    8.4564000e+03   0.000000e+00   0.000000e+00      0s

Solved in 20 iterations and 0.00 seconds
Optimal objective  8.456400000e+03
Gurobi Optimizer version 9.0.3 build v9.0.3rc0 (win64)
Optimize a model with 50 rows, 332 columns and 906 nonzeros
Coefficient statistics:
  Matrix range     [1e+00, 1e+00]
  Objective range  [1e+01, 9e+02]
  Bounds range     [1e+00, 1e+00]
  RHS range        [1e+00, 1e+00]
Iteration    Objective       Primal Inf.    Dual Inf.      Time
       0   -2.0639840e+05   1.425000e+03   0.000000e+00      0s
      25    8.4564000e+03   0.000000e+00   0.000000e+00      0s

Solved in 25 iterations and 0.00 seconds
Optimal objective  8.456400000e+03
Gurobi Optimizer version 9.0.3 build v9.0.3rc0 (win64)
Optimize a model with 50 rows, 490 columns and 1332 nonzeros
Coefficient statistics:
  Matrix range     [1e+00, 1e+00]
  Objective range  [1e+01, 9e+02]
  Bounds range     [1e+00, 1e+00]
  RHS range        [1e+00, 1e+00]
Iteration    Objective       Primal Inf.    Dual Inf.      Time
       0   -1.8571720e+05   1.623000e+03   0.000000e+00      0s
      52    8.3874000e+03   0.000000e+00   0.000000e+00      0s

Solved in 52 iterations and 0.00 seconds
Optimal objective  8.387400000e+03
Gurobi Optimizer version 9.0.3 build v9.0.3rc0 (win64)
Optimize a model with 50 rows, 661 columns and 1796 nonzeros
Coefficient statistics:
  Matrix range     [1e+00, 1e+00]
  Objective range  [1e+01, 9e+02]
  Bounds range     [1e+00, 1e+00]
  RHS range        [1e+00, 1e+00]
Iteration    Objective       Primal Inf.    Dual Inf.      Time
       0   -1.7907750e+05   2.472000e+03   0.000000e+00      0s
      85    5.9189000e+03   0.000000e+00   0.000000e+00      0s

Solved in 85 iterations and 0.00 seconds
Optimal objective  5.918900000e+03
Gurobi Optimizer version 9.0.3 build v9.0.3rc0 (win64)
Optimize a model with 50 rows, 792 columns and 2157 nonzeros
Coefficient statistics:
  Matrix range     [1e+00, 1e+00]
  Objective range  [1e+01, 9e+02]
  Bounds range     [1e+00, 1e+00]
  RHS range        [1e+00, 1e+00]
Iteration    Objective       Primal Inf.    Dual Inf.      Time
       0   -3.1815500e+04   1.129500e+03   0.000000e+00      0s
      79    5.2484000e+03   0.000000e+00   0.000000e+00      0s

Solved in 79 iterations and 0.00 seconds
Optimal objective  5.248400000e+03
Gurobi Optimizer version 9.0.3 build v9.0.3rc0 (win64)
Optimize a model with 50 rows, 919 columns and 2529 nonzeros
Coefficient statistics:
  Matrix range     [1e+00, 1e+00]
  Objective range  [1e+01, 9e+02]
  Bounds range     [1e+00, 1e+00]
  RHS range        [1e+00, 1e+00]
Iteration    Objective       Primal Inf.    Dual Inf.      Time
       0   -3.1409050e+04   1.430375e+03   0.000000e+00      0s
      74    4.6569750e+03   0.000000e+00   0.000000e+00      0s

Solved in 74 iterations and 0.00 seconds
Optimal objective  4.656975000e+03
Gurobi Optimizer version 9.0.3 build v9.0.3rc0 (win64)
Optimize a model with 50 rows, 984 columns and 2744 nonzeros
Coefficient statistics:
  Matrix range     [1e+00, 1e+00]
  Objective range  [1e+01, 9e+02]
  Bounds range     [1e+00, 1e+00]
  RHS range        [1e+00, 1e+00]
Iteration    Objective       Primal Inf.    Dual Inf.      Time
       0   -1.6137750e+03   7.142500e+02   0.000000e+00      0s
      84    4.3443417e+03   0.000000e+00   0.000000e+00      0s

Solved in 84 iterations and 0.00 seconds
Optimal objective  4.344341667e+03
Gurobi Optimizer version 9.0.3 build v9.0.3rc0 (win64)
Optimize a model with 50 rows, 1060 columns and 2992 nonzeros
Coefficient statistics:
  Matrix range     [1e+00, 1e+00]
  Objective range  [1e+01, 9e+02]
  Bounds range     [1e+00, 1e+00]
  RHS range        [1e+00, 1e+00]
Iteration    Objective       Primal Inf.    Dual Inf.      Time
       0   -3.9487833e+03   7.184167e+02   0.000000e+00      0s
      59    4.1204667e+03   0.000000e+00   0.000000e+00      0s

Solved in 59 iterations and 0.00 seconds
Optimal objective  4.120466667e+03
Gurobi Optimizer version 9.0.3 build v9.0.3rc0 (win64)
Optimize a model with 50 rows, 1124 columns and 3210 nonzeros
Coefficient statistics:
  Matrix range     [1e+00, 1e+00]
  Objective range  [1e+01, 9e+02]
  Bounds range     [1e+00, 1e+00]
  RHS range        [1e+00, 1e+00]
Iteration    Objective       Primal Inf.    Dual Inf.      Time
       0    6.8396667e+02   1.099417e+03   0.000000e+00      0s
      56    3.9375333e+03   0.000000e+00   0.000000e+00      0s

Solved in 56 iterations and 0.00 seconds
Optimal objective  3.937533333e+03
Gurobi Optimizer version 9.0.3 build v9.0.3rc0 (win64)
Optimize a model with 50 rows, 1190 columns and 3435 nonzeros
Coefficient statistics:
  Matrix range     [1e+00, 1e+00]
  Objective range  [1e+01, 9e+02]
  Bounds range     [1e+00, 1e+00]
  RHS range        [1e+00, 1e+00]
Iteration    Objective       Primal Inf.    Dual Inf.      Time
       0   -2.6757222e+03   1.216944e+03   0.000000e+00      0s
      49    3.8933175e+03   0.000000e+00   0.000000e+00      0s

Solved in 49 iterations and 0.00 seconds
Optimal objective  3.893317500e+03
Gurobi Optimizer version 9.0.3 build v9.0.3rc0 (win64)
Optimize a model with 50 rows, 1214 columns and 3529 nonzeros
Coefficient statistics:
  Matrix range     [1e+00, 1e+00]
  Objective range  [1e+01, 9e+02]
  Bounds range     [1e+00, 1e+00]
  RHS range        [1e+00, 1e+00]
Iteration    Objective       Primal Inf.    Dual Inf.      Time
       0    2.7519858e+03   8.972500e+01   0.000000e+00      0s
      32    3.8456375e+03   0.000000e+00   0.000000e+00      0s

Solved in 32 iterations and 0.00 seconds
Optimal objective  3.845637500e+03
Gurobi Optimizer version 9.0.3 build v9.0.3rc0 (win64)
Optimize a model with 50 rows, 1237 columns and 3620 nonzeros
Coefficient statistics:
  Matrix range     [1e+00, 1e+00]
  Objective range  [1e+01, 9e+02]
  Bounds range     [1e+00, 1e+00]
  RHS range        [1e+00, 1e+00]
Iteration    Objective       Primal Inf.    Dual Inf.      Time
       0    3.0532604e+03   1.066893e+02   0.000000e+00      0s
      32    3.7880909e+03   0.000000e+00   0.000000e+00      0s

Solved in 32 iterations and 0.00 seconds
Optimal objective  3.788090909e+03
Gurobi Optimizer version 9.0.3 build v9.0.3rc0 (win64)
Optimize a model with 50 rows, 1255 columns and 3692 nonzeros
Coefficient statistics:
  Matrix range     [1e+00, 1e+00]
  Objective range  [1e+01, 9e+02]
  Bounds range     [1e+00, 1e+00]
  RHS range        [1e+00, 1e+00]
Iteration    Objective       Primal Inf.    Dual Inf.      Time
       0    3.4453515e+03   1.544242e+02   0.000000e+00      0s
      43    3.7724500e+03   0.000000e+00   0.000000e+00      0s

Solved in 43 iterations and 0.00 seconds
Optimal objective  3.772450000e+03
Gurobi Optimizer version 9.0.3 build v9.0.3rc0 (win64)
Optimize a model with 50 rows, 1275 columns and 3772 nonzeros
Coefficient statistics:
  Matrix range     [1e+00, 1e+00]
  Objective range  [1e+01, 9e+02]
  Bounds range     [1e+00, 1e+00]
  RHS range        [1e+00, 1e+00]
Iteration    Objective       Primal Inf.    Dual Inf.      Time
       0    3.4472750e+03   1.266111e+02   0.000000e+00      0s
      19    3.7569667e+03   0.000000e+00   0.000000e+00      0s

Solved in 19 iterations and 0.00 seconds
Optimal objective  3.756966667e+03
Gurobi Optimizer version 9.0.3 build v9.0.3rc0 (win64)
Optimize a model with 50 rows, 1284 columns and 3808 nonzeros
Coefficient statistics:
  Matrix range     [1e+00, 1e+00]
  Objective range  [1e+01, 9e+02]
  Bounds range     [1e+00, 1e+00]
  RHS range        [1e+00, 1e+00]
Iteration    Objective       Primal Inf.    Dual Inf.      Time
       0    3.6679167e+03   2.537500e+01   0.000000e+00      0s
      13    3.7416000e+03   0.000000e+00   0.000000e+00      0s

Solved in 13 iterations and 0.00 seconds
Optimal objective  3.741600000e+03
Gurobi Optimizer version 9.0.3 build v9.0.3rc0 (win64)
Optimize a model with 50 rows, 1288 columns and 3824 nonzeros
Coefficient statistics:
  Matrix range     [1e+00, 1e+00]
  Objective range  [1e+01, 9e+02]
  Bounds range     [1e+00, 1e+00]
  RHS range        [1e+00, 1e+00]
Iteration    Objective       Primal Inf.    Dual Inf.      Time
       0    3.7319750e+03   1.425000e+01   0.000000e+00      0s
       6    3.7413750e+03   0.000000e+00   0.000000e+00      0s

Solved in 6 iterations and 0.00 seconds
Optimal objective  3.741375000e+03
Gurobi Optimizer version 9.0.3 build v9.0.3rc0 (win64)
Optimize a model with 50 rows, 1292 columns and 3840 nonzeros
Coefficient statistics:
  Matrix range     [1e+00, 1e+00]
  Objective range  [1e+01, 9e+02]
  Bounds range     [1e+00, 1e+00]
  RHS range        [1e+00, 1e+00]
Iteration    Objective       Primal Inf.    Dual Inf.      Time
       0    3.7282917e+03   1.508333e+01   0.000000e+00      0s
       9    3.7381000e+03   0.000000e+00   0.000000e+00      0s

Solved in 9 iterations and 0.00 seconds
Optimal objective  3.738100000e+03
Gurobi Optimizer version 9.0.3 build v9.0.3rc0 (win64)
Optimize a model with 50 rows, 1293 columns and 3844 nonzeros
Coefficient statistics:
  Matrix range     [1e+00, 1e+00]
  Objective range  [1e+01, 9e+02]
  Bounds range     [1e+00, 1e+00]
  RHS range        [1e+00, 1e+00]
Iteration    Objective       Primal Inf.    Dual Inf.      Time
       0    3.7359417e+03   5.041667e+00   0.000000e+00      0s
       1    3.7381000e+03   0.000000e+00   0.000000e+00      0s

Solved in 1 iterations and 0.00 seconds
Optimal objective  3.738100000e+03
